p cnf 12 50 
5 -12 11 0
-3 -6 5 0
1 10 -2 0
-7 -5 8 0
12 5 -7 0
-3 8 -2 0
5 3 -8 0
-5 4 -7 0
-9 -6 3 0
-4 9 10 0
-9 3 -12 0
-5 12 -11 0
-4 8 1 0
4 -3 -5 0
-2 9 -11 0
-2 4 -1 0
-1 -10 -6 0
7 -11 -3 0
3 -2 11 0
-5 4 7 0
10 -8 9 0
6 -12 7 0
1 -9 4 0
3 -12 10 0
-11 -6 -12 0
-9 -5 3 0
-4 -7 -6 0
9 -4 -10 0
7 4 -3 0
12 2 3 0
3 6 -5 0
4 -1 -7 0
-3 -1 6 0
1 -9 -12 0
7 4 -10 0
-11 -7 -2 0
12 -11 3 0
11 -1 -9 0
-11 -6 7 0
-7 4 5 0
2 12 -7 0
-6 10 2 0
1 -3 -10 0
10 5 6 0
-12 3 -7 0
8 -6 -12 0
8 2 -1 0
7 2 -6 0
8 5 -9 0
-12 -11 -10 0
